nNurses = 57;
nHours = 36;
minHours = 6;
maxHours = 19;
maxConsec = 10;
maxPresence = 32;
demand = [18, 19, 20, 23, 22, 17, 16, 17, 16, 18, 23, 24, 19, 18, 13, 12, 16, 14, 18, 20, 20, 20, 21, 17, 18, 16, 21, 26, 22, 26, 25, 30, 30, 30, 26, 22];
